18 965
539 7 515 7 439 11
539 7 515 7 439 11
525 7 504 7 362 7 209 9 25 11 818 15 619 21
525 7 504 7 362 7 209 9 25 11 818 15 619 21
525 7 504 7 362 7 209 9 25 11 818 15 619 21
528 7 450 7 270 7 67 9 892 11 734 18
525 7 482 7 394 7 212 9 29 11 822 15 623 21
525 7 479 7 355 7 106 9 931 13
525 7 479 7 356 7 107 9 6 11 781 15 614 22
525 7 479 7 356 7 107 9 6 11 781 15 614 22
525 7 482 7 394 7 212 9 29 11 822 15 625 21
525 7 482 7 394 7 212 9 29 11 822 15 625 21
535 8 493 8 396 9 228 10 178 22
535 8 493 8 396 9 228 10 178 22
525 7 502 7 412 7 255 9 80 11 873 18
535 8 492 8 398 9 279 10 184 14 58 26 897 50
535 8 492 8 398 9 279 10 184 14 58 26 897 50
525 7 445 7 264 7 63 9 889 11 721 18
